p cnf 50 1000
1 -50 -48 0
1 -50 -34 0
1 -50 -32 0
1 -50 -31 0
1 -50 -28 0
1 -50 -27 0
1 -50 -25 0
1 -50 -19 0
1 -50 -17 0
1 -50 -16 0
1 -50 7 0
1 -50 15 0
1 -50 21 0
1 -50 34 0
1 -50 37 0
1 -50 38 0
1 -50 40 0
1 -50 45 0
1 -50 46 0
1 -50 48 0
1 -49 -45 0
1 -49 -35 0
1 -49 -34 0
1 -49 -29 0
1 -49 -26 0
1 -49 -22 0
1 -49 -18 0
1 -49 -16 0
1 -49 -10 0
1 -49 -9 0
1 -49 -6 0
1 -49 6 0
1 -49 8 0
1 -49 9 0
1 -49 15 0
1 -49 17 0
1 -49 24 0
1 -49 25 0
1 -49 28 0
1 -49 34 0
1 -48 -47 0
1 -48 -46 0
1 -48 -45 0
1 -48 -44 0
1 -48 -36 0
1 -48 -30 0
1 -48 -29 0
1 -48 -27 0
1 -48 -16 0
1 -48 -14 0
1 -48 -9 0
1 -48 -5 0
1 -48 4 0
1 -48 12 0
1 -48 18 0
1 -48 25 0
1 -48 31 0
1 -48 34 0
1 -48 41 0
1 -47 -36 0
1 -47 -31 0
1 -47 -30 0
1 -47 -28 0
1 -47 -21 0
1 -47 -19 0
1 -47 -10 0
1 -47 -9 0
1 -47 -4 0
1 -47 -2 0
1 -47 1 0
1 -47 14 0
1 -47 24 0
1 -47 27 0
1 -47 29 0
1 -47 31 0
1 -47 41 0
1 -47 43 0
1 -47 50 0
1 -46 -43 0
1 -46 -37 0
1 -46 -36 0
1 -46 -28 0
1 -46 -13 0
1 -46 -12 0
1 -46 -11 0
1 -46 -3 0
1 -46 7 0
1 -46 9 0
1 -46 10 0
1 -46 11 0
1 -46 17 0
1 -46 33 0
1 -46 35 0
1 -46 36 0
1 -46 39 0
1 -46 40 0
1 -46 50 0
1 -45 -32 0
1 -45 -31 0
1 -45 -29 0
1 -45 -19 0
1 -45 -5 0
1 -45 -3 0
1 -45 2 0
1 -45 5 0
1 -45 7 0
1 -45 8 0
1 -45 9 0
1 -45 13 0
1 -45 14 0
1 -45 26 0
1 -45 30 0
1 -45 39 0
1 -45 43 0
1 -45 46 0
1 -44 -42 0
1 -44 -41 0
1 -44 -40 0
1 -44 -31 0
1 -44 -30 0
1 -44 -29 0
1 -44 -6 0
1 -44 -2 0
1 -44 1 0
1 -44 20 0
1 -44 21 0
1 -44 24 0
1 -44 27 0
1 -44 35 0
1 -44 38 0
1 -44 40 0
1 -44 42 0
1 -44 45 0
1 -44 46 0
1 -43 -32 0
1 -43 -26 0
1 -43 -17 0
1 -43 -16 0
1 -43 4 0
1 -43 7 0
1 -43 8 0
1 -43 13 0
1 -43 18 0
1 -43 20 0
1 -43 23 0
1 -43 28 0
1 -43 31 0
1 -43 33 0
1 -43 34 0
1 -43 38 0
1 -43 44 0
1 -43 45 0
1 -43 47 0
1 -42 -41 0
1 -42 -37 0
1 -42 -33 0
1 -42 -32 0
1 -42 -30 0
1 -42 -22 0
1 -42 -21 0
1 -42 4 0
1 -42 10 0
1 -42 13 0
1 -42 19 0
1 -42 26 0
1 -42 31 0
1 -42 32 0
1 -42 33 0
1 -42 34 0
1 -42 35 0
1 -42 44 0
1 -42 46 0
1 -41 -40 0
1 -41 -35 0
1 -41 -29 0
1 -41 -27 0
1 -41 -23 0
1 -41 -22 0
1 -41 -21 0
1 -41 -16 0
1 -41 -15 0
1 -41 -14 0
1 -41 -5 0
1 -41 -4 0
1 -41 7 0
1 -41 11 0
1 -41 12 0
1 -41 16 0
1 -41 36 0
1 -41 42 0
1 -40 -39 0
1 -40 -37 0
1 -40 -30 0
1 -40 -28 0
1 -40 -23 0
1 -40 -16 0
1 -40 -14 0
1 -40 -7 0
1 -40 11 0
1 -40 19 0
1 -40 20 0
1 -40 22 0
1 -40 28 0
1 -40 29 0
1 -40 31 0
1 -40 38 0
1 -40 41 0
1 -40 43 0
1 -39 -36 0
1 -39 -33 0
1 -39 -25 0
1 -39 -24 0
1 -39 -16 0
1 -39 -15 0
1 -39 -1 0
1 -39 4 0
1 -39 5 0
1 -39 7 0
1 -39 9 0
1 -39 10 0
1 -39 14 0
1 -39 23 0
1 -39 26 0
1 -39 29 0
1 -39 33 0
1 -39 40 0
1 -39 41 0
1 -38 -35 0
1 -38 -29 0
1 -38 -28 0
1 -38 -24 0
1 -38 -23 0
1 -38 -20 0
1 -38 -17 0
1 -38 -15 0
1 -38 -14 0
1 -38 -12 0
1 -38 8 0
1 -38 10 0
1 -38 12 0
1 -38 14 0
1 -38 24 0
1 -38 25 0
1 -38 29 0
1 -38 33 0
1 -38 42 0
1 -38 47 0
1 -37 -34 0
1 -37 -27 0
1 -37 -16 0
1 -37 -14 0
1 -37 -12 0
1 -37 -7 0
1 -37 -6 0
1 -37 -5 0
1 -37 9 0
1 -37 10 0
1 -37 15 0
1 -37 20 0
1 -37 21 0
1 -37 27 0
1 -37 36 0
1 -37 38 0
1 -37 49 0
1 -36 -14 0
1 -36 -10 0
1 -36 -6 0
1 -36 -5 0
1 -36 8 0
1 -36 14 0
1 -36 15 0
1 -36 16 0
1 -36 17 0
1 -36 26 0
1 -36 32 0
1 -36 41 0
1 -36 43 0
1 -36 45 0
1 -36 48 0
1 -36 49 0
1 -35 -34 0
1 -35 -32 0
1 -35 -24 0
1 -35 -21 0
1 -35 -20 0
1 -35 -11 0
1 -35 -9 0
1 -35 4 0
1 -35 8 0
1 -35 14 0
1 -35 17 0
1 -35 21 0
1 -35 24 0
1 -35 29 0
1 -35 32 0
1 -35 34 0
1 -35 40 0
1 -34 -30 0
1 -34 -29 0
1 -34 -25 0
1 -34 -24 0
1 -34 -18 0
1 -34 -14 0
1 -34 8 0
1 -34 13 0
1 -34 19 0
1 -34 22 0
1 -34 25 0
1 -34 26 0
1 -34 35 0
1 -34 37 0
1 -34 42 0
1 -34 50 0
1 -33 -24 0
1 -33 -23 0
1 -33 -12 0
1 -33 -5 0
1 -33 -2 0
1 -33 1 0
1 -33 6 0
1 -33 19 0
1 -33 20 0
1 -33 23 0
1 -33 24 0
1 -33 25 0
1 -33 29 0
1 -33 30 0
1 -33 32 0
1 -33 35 0
1 -33 37 0
1 -33 50 0
1 -32 -23 0
1 -32 -22 0
1 -32 -18 0
1 -32 -13 0
1 -32 -7 0
1 -32 3 0
1 -32 4 0
1 -32 15 0
1 -32 19 0
1 -32 20 0
1 -32 26 0
1 -32 27 0
1 -32 30 0
1 -32 36 0
1 -32 42 0
1 -31 -23 0
1 -31 -18 0
1 -31 -17 0
1 -31 -16 0
1 -31 -13 0
1 -31 -5 0
1 -31 -3 0
1 -31 5 0
1 -31 6 0
1 -31 9 0
1 -31 15 0
1 -31 20 0
1 -31 21 0
1 -31 37 0
1 -31 39 0
1 -31 50 0
1 -30 -28 0
1 -30 -26 0
1 -30 -24 0
1 -30 -23 0
1 -30 -21 0
1 -30 -13 0
1 -30 -9 0
1 -30 -4 0
1 -30 3 0
1 -30 7 0
1 -30 36 0
1 -30 40 0
1 -30 46 0
1 -30 50 0
1 -29 -27 0
1 -29 -11 0
1 -29 -6 0
1 -29 1 0
1 -29 10 0
1 -29 13 0
1 -29 14 0
1 -29 27 0
1 -29 31 0
1 -29 34 0
1 -29 37 0
1 -29 42 0
1 -29 49 0
1 -28 -26 0
1 -28 -13 0
1 -28 -7 0
1 -28 -5 0
1 -28 -3 0
1 -28 3 0
1 -28 22 0
1 -28 30 0
1 -28 32 0
1 -28 39 0
1 -28 40 0
1 -28 41 0
1 -28 44 0
1 -28 47 0
1 -27 -24 0
1 -27 -21 0
1 -27 -20 0
1 -27 -4 0
1 -27 5 0
1 -27 8 0
1 -27 11 0
1 -27 16 0
1 -27 22 0
1 -27 24 0
1 -27 30 0
1 -27 35 0
1 -27 46 0
1 -27 49 0
1 -27 50 0
1 -26 -22 0
1 -26 -18 0
1 -26 -15 0
1 -26 -12 0
1 -26 -10 0
1 -26 -7 0
1 -26 -2 0
1 -26 15 0
1 -26 16 0
1 -26 20 0
1 -26 24 0
1 -26 25 0
1 -26 35 0
1 -26 39 0
1 -26 43 0
1 -26 48 0
1 -25 -21 0
1 -25 -20 0
1 -25 -14 0
1 -25 -13 0
1 -25 -12 0
1 -25 -6 0
1 -25 -5 0
1 -25 -2 0
1 -25 2 0
1 -25 7 0
1 -25 9 0
1 -25 12 0
1 -25 19 0
1 -25 32 0
1 -25 35 0
1 -25 38 0
1 -25 44 0
1 -24 -18 0
1 -24 -17 0
1 -24 -12 0
1 -24 -11 0
1 -24 1 0
1 -24 2 0
1 -24 22 0
1 -24 28 0
1 -24 36 0
1 -24 38 0
1 -24 41 0
1 -24 44 0
1 -24 50 0
1 -23 -22 0
1 -23 -19 0
1 -23 -9 0
1 -23 -6 0
1 -23 -4 0
1 -23 2 0
1 -23 6 0
1 -23 10 0
1 -23 20 0
1 -23 31 0
1 -23 34 0
1 -23 37 0
1 -23 47 0
1 -22 -21 0
1 -22 -6 0
1 -22 -5 0
1 -22 -4 0
1 -22 -2 0
1 -22 -1 0
1 -22 3 0
1 -22 18 0
1 -22 27 0
1 -22 30 0
1 -22 33 0
1 -22 40 0
1 -22 42 0
1 -22 44 0
1 -21 -17 0
1 -21 -16 0
1 -21 -14 0
1 -21 2 0
1 -21 3 0
1 -21 4 0
1 -21 10 0
1 -21 17 0
1 -21 18 0
1 -21 29 0
1 -21 44 0
1 -21 45 0
1 -20 -10 0
1 -20 -9 0
1 -20 -8 0
1 -20 -3 0
1 -20 -1 0
1 -20 2 0
1 -20 5 0
1 -20 15 0
1 -20 21 0
1 -20 24 0
1 -20 25 0
1 -20 27 0
1 -20 45 0
1 -20 46 0
1 -20 48 0
1 -20 49 0
1 -19 -18 0
1 -19 -10 0
1 -19 -8 0
1 -19 -1 0
1 -19 1 0
1 -19 2 0
1 -19 3 0
1 -19 9 0
1 -19 13 0
1 -19 16 0
1 -19 23 0
1 -19 25 0
1 -19 39 0
1 -19 41 0
1 -19 46 0
1 -19 48 0
1 -18 -17 0
1 -18 -12 0
1 -18 -6 0
1 -18 -3 0
1 -18 5 0
1 -18 7 0
1 -18 8 0
1 -18 12 0
1 -18 17 0
1 -18 35 0
1 -18 39 0
1 -18 41 0
1 -18 49 0
1 -17 -14 0
1 -17 -1 0
1 -17 2 0
1 -17 3 0
1 -17 4 0
1 -17 10 0
1 -17 19 0
1 -17 23 0
1 -17 24 0
1 -17 25 0
1 -17 38 0
1 -17 43 0
1 -17 48 0
1 -16 -10 0
1 -16 -6 0
1 -16 5 0
1 -16 19 0
1 -16 21 0
1 -16 27 0
1 -16 28 0
1 -16 41 0
1 -16 46 0
1 -16 47 0
1 -15 -11 0
1 -15 -10 0
1 -15 -9 0
1 -15 -8 0
1 -15 -7 0
1 -15 -4 0
1 -15 1 0
1 -15 7 0
1 -15 16 0
1 -15 18 0
1 -15 21 0
1 -15 34 0
1 -15 35 0
1 -15 40 0
1 -15 42 0
1 -15 47 0
1 -14 -12 0
1 -14 -9 0
1 -14 -6 0
1 -14 4 0
1 -14 8 0
1 -14 18 0
1 -14 26 0
1 -14 30 0
1 -14 37 0
1 -14 42 0
1 -13 -8 0
1 -13 -1 0
1 -13 2 0
1 -13 7 0
1 -13 9 0
1 -13 16 0
1 -13 27 0
1 -13 28 0
1 -13 31 0
1 -13 32 0
1 -13 33 0
1 -13 37 0
1 -13 49 0
1 -13 50 0
1 -12 1 0
1 -12 4 0
1 -12 5 0
1 -12 11 0
1 -12 14 0
1 -12 20 0
1 -12 26 0
1 -12 28 0
1 -12 41 0
1 -12 43 0
1 -12 49 0
1 -11 -9 0
1 -11 -6 0
1 -11 -2 0
1 -11 -1 0
1 -11 4 0
1 -11 10 0
1 -11 13 0
1 -11 18 0
1 -11 20 0
1 -11 26 0
1 -11 33 0
1 -11 34 0
1 -11 41 0
1 -11 49 0
1 -11 50 0
1 -10 4 0
1 -10 9 0
1 -10 11 0
1 -10 15 0
1 -10 22 0
1 -10 23 0
1 -10 26 0
1 -10 29 0
1 -10 32 0
1 -10 39 0
1 -10 43 0
1 -10 48 0
1 -9 -6 0
1 -9 5 0
1 -9 13 0
1 -9 18 0
1 -9 26 0
1 -9 27 0
1 -9 29 0
1 -9 34 0
1 -9 35 0
1 -9 47 0
1 -8 -3 0
1 -8 -2 0
1 -8 12 0
1 -8 14 0
1 -8 15 0
1 -8 16 0
1 -8 28 0
1 -8 30 0
1 -8 32 0
1 -8 33 0
1 -8 34 0
1 -8 38 0
1 -8 46 0
1 -8 47 0
1 -8 49 0
1 -8 50 0
1 -7 -5 0
1 -7 2 0
1 -7 3 0
1 -7 10 0
1 -7 13 0
1 -7 15 0
1 -7 17 0
1 -7 24 0
1 -7 30 0
1 -7 36 0
1 -7 37 0
1 -7 44 0
1 -7 46 0
1 -7 48 0
1 -6 -5 0
1 -6 7 0
1 -6 25 0
1 -6 28 0
1 -6 42 0
1 -6 49 0
1 -6 50 0
1 -5 -2 0
1 -5 1 0
1 -5 2 0
1 -5 9 0
1 -5 15 0
1 -5 19 0
1 -5 31 0
1 -5 32 0
1 -4 -1 0
1 -4 6 0
1 -4 9 0
1 -4 12 0
1 -4 14 0
1 -4 16 0
1 -4 18 0
1 -4 28 0
1 -4 30 0
1 -4 35 0
1 -4 37 0
1 -4 39 0
1 -4 42 0
1 -3 7 0
1 -3 9 0
1 -3 10 0
1 -3 14 0
1 -3 22 0
1 -3 27 0
1 -3 30 0
1 -3 31 0
1 -3 36 0
1 -3 38 0
1 -3 43 0
1 -3 48 0
1 -3 50 0
1 -2 10 0
1 -2 11 0
1 -2 13 0
1 -2 16 0
1 -2 17 0
1 -2 20 0
1 -2 23 0
1 -2 33 0
1 -2 40 0
1 -2 44 0
1 -2 45 0
1 -1 7 0
1 -1 10 0
1 -1 12 0
1 -1 14 0
1 -1 15 0
1 -1 18 0
1 -1 24 0
1 -1 25 0
1 -1 33 0
1 -1 34 0
1 -1 45 0
1 -1 47 0
1 1 6 0
1 1 9 0
1 1 15 0
1 1 16 0
1 1 17 0
1 1 18 0
1 1 40 0
1 1 44 0
1 1 45 0
1 1 46 0
1 1 48 0
1 2 3 0
1 2 9 0
1 2 12 0
1 2 15 0
1 2 22 0
1 2 23 0
1 2 26 0
1 2 32 0
1 2 49 0
1 3 8 0
1 3 10 0
1 3 11 0
1 3 15 0
1 3 21 0
1 3 24 0
1 3 25 0
1 3 41 0
1 3 42 0
1 3 44 0
1 3 47 0
1 4 6 0
1 4 9 0
1 4 13 0
1 4 17 0
1 4 23 0
1 4 34 0
1 4 49 0
1 4 50 0
1 5 8 0
1 5 10 0
1 5 11 0
1 5 17 0
1 5 21 0
1 5 22 0
1 5 28 0
1 5 29 0
1 5 38 0
1 5 41 0
1 5 48 0
1 6 7 0
1 6 13 0
1 6 14 0
1 6 17 0
1 6 18 0
1 6 21 0
1 6 22 0
1 6 24 0
1 6 29 0
1 6 31 0
1 6 36 0
1 6 39 0
1 6 44 0
1 7 9 0
1 7 11 0
1 7 23 0
1 7 32 0
1 7 46 0
1 8 11 0
1 8 12 0
1 8 19 0
1 8 23 0
1 8 24 0
1 8 25 0
1 8 27 0
1 8 31 0
1 9 35 0
1 9 40 0
1 9 47 0
1 10 20 0
1 10 22 0
1 10 34 0
1 10 48 0
1 11 12 0
1 11 14 0
1 11 16 0
1 11 28 0
1 11 29 0
1 11 33 0
1 11 35 0
1 11 39 0
1 11 48 0
1 12 14 0
1 12 18 0
1 12 20 0
1 12 30 0
1 12 31 0
1 12 36 0
1 12 40 0
1 12 44 0
1 12 47 0
1 13 18 0
1 13 23 0
1 13 25 0
1 13 27 0
1 13 36 0
1 13 37 0
1 13 42 0
1 13 47 0
1 14 21 0
1 14 22 0
1 14 43 0
1 14 49 0
1 14 50 0
1 15 18 0
1 15 24 0
1 15 30 0
1 15 40 0
1 16 29 0
1 16 30 0
1 16 33 0
1 16 36 0
1 16 39 0
1 16 41 0
1 16 47 0
1 16 50 0
1 17 18 0
1 17 23 0
1 17 29 0
1 17 33 0
1 17 39 0
1 17 42 0
1 17 44 0
1 17 48 0
1 18 23 0
1 18 25 0
1 18 28 0
1 18 45 0
1 19 20 0
1 19 23 0
1 19 25 0
1 19 28 0
1 19 37 0
1 19 39 0
1 19 42 0
1 19 45 0
1 19 47 0
1 19 48 0
1 20 23 0
1 20 24 0
1 20 29 0
1 20 37 0
1 20 44 0
1 21 27 0
1 21 29 0
1 21 31 0
1 21 35 0
1 21 36 0
1 21 40 0
1 21 48 0
1 21 49 0
1 22 26 0
1 22 27 0
1 22 30 0
1 22 33 0
1 22 38 0
1 22 40 0
1 22 41 0
1 22 48 0
1 23 25 0
1 23 26 0
1 23 43 0
1 23 45 0
1 24 35 0
1 24 43 0
1 24 44 0
1 25 26 0
1 25 35 0
1 25 46 0
1 26 29 0
1 26 36 0
1 26 37 0
1 26 41 0
1 26 45 0
1 27 28 0
1 27 30 0
1 27 31 0
1 27 39 0
1 27 40 0
1 28 29 0
1 28 31 0
1 28 38 0
1 28 41 0
1 28 46 0
1 29 32 0
1 29 47 0
1 30 31 0
1 30 38 0
1 30 43 0
1 30 45 0
1 31 36 0
1 31 40 0
1 31 50 0
1 32 34 0
1 32 38 0
1 32 39 0
1 32 44 0
1 32 45 0
1 32 48 0
1 32 49 0
1 33 35 0
1 33 36 0
1 33 39 0
1 33 44 0
1 33 49 0
1 34 39 0
1 34 45 0
1 34 46 0
1 34 50 0
1 35 38 0
1 35 42 0
1 36 38 0
1 36 42 0
1 36 43 0
1 36 47 0
1 37 40 0
1 37 42 0
1 37 43 0
1 37 44 0
1 37 45 0
1 37 46 0
1 38 41 0
1 38 45 0
1 38 49 0
1 39 41 0
1 39 49 0
1 40 43 0
1 42 43 0
1 42 48 0
1 43 46 0
1 43 49 0
1 43 50 0
1 44 47 0
1 45 46 0
1 45 47 0
1 46 50 0
1 47 48 0
